unsat
(:cnf-encoding-aux-vars   5
 :eliminated-applications 3
 :eliminated-vars         34
 :max-memory              18.26
 :memory                  18.04
 :nlsat-conflicts         4
 :nlsat-decisions         6
 :nlsat-learned-added     3
 :nlsat-propagations      12
 :num-allocs              9290
 :rlimit-count            15953
 :time                    0.01
 :total-time              0.02)
